
******************************************************************************
This program contains Ipopt, a library for large-scale nonlinear optimization.
 Ipopt is released as open source code under the Eclipse Public License (EPL).
         For more information visit https://github.com/coin-or/Ipopt
******************************************************************************

This is Ipopt version 3.14.19, running with linear solver MUMPS 5.8.1.

Number of nonzeros in equality constraint Jacobian...:     2204
Number of nonzeros in inequality constraint Jacobian.:        0
Number of nonzeros in Lagrangian Hessian.............:      525

Total number of variables............................:      647
                     variables with only lower bounds:        0
                variables with lower and upper bounds:      232
                     variables with only upper bounds:        0
Total number of equality constraints.................:      639
Total number of inequality constraints...............:        0
        inequality constraints with only lower bounds:        0
   inequality constraints with lower and upper bounds:        0
        inequality constraints with only upper bounds:        0

iter    objective    inf_pr   inf_du lg(mu)  ||d||  lg(rg) alpha_du alpha_pr  ls
   0  4.9463290e+00 9.90e+01 4.95e-05  -1.0 0.00e+00    -  0.00e+00 0.00e+00   0
   1  4.9921712e+00 3.56e+01 2.09e+01  -1.0 1.00e+02    -  4.37e-02 9.90e-01h  1
   2  4.9743516e+00 5.86e+00 4.56e-01  -1.0 1.86e+01    -  9.29e-01 1.00e+00h  1
   3  4.9472565e+00 4.80e+00 9.82e-02  -1.0 2.58e+00    -  9.86e-01 1.00e+00h  1
   4  4.9467276e+00 3.17e+00 1.05e-03  -1.0 8.72e+00    -  1.00e+00 1.00e+00h  1
   5  4.9464427e+00 2.45e-01 5.52e-05  -1.0 2.54e+00    -  1.00e+00 1.00e+00h  1
   6  4.9463396e+00 1.53e-02 8.42e-05  -1.7 1.88e-01    -  1.00e+00 1.00e+00h  1
   7  4.9463276e+00 9.21e-03 8.71e-06  -3.8 2.57e-01    -  1.00e+00 1.00e+00h  1
   8  4.9463273e+00 3.07e-05 8.81e-09  -3.8 2.23e-02    -  1.00e+00 1.00e+00h  1
   9  4.9463272e+00 2.94e-07 8.01e-05  -5.7 3.07e-03    -  9.93e-01 1.00e+00h  1
iter    objective    inf_pr   inf_du lg(mu)  ||d||  lg(rg) alpha_du alpha_pr  ls
  10  4.9463062e+00 1.11e-07 1.26e-05  -5.7 6.26e-01    -  7.77e-01 1.00e+00h  1
  11  4.9463003e+00 3.44e-09 1.77e-05  -8.6 1.67e-01    -  8.18e-01 1.00e+00h  1
  12  4.9462991e+00 1.94e-09 3.58e-05  -8.6 7.24e-02    -  9.94e-01 4.83e-01h  1
  13  4.9462991e+00 3.90e-07 1.30e-06  -8.6 1.72e-03    -  9.96e-01 1.00e+00f  1
  14  4.9462991e+00 1.70e-10 8.96e-13  -8.6 7.29e-03    -  1.00e+00 1.00e+00h  1

Number of Iterations....: 14

                                   (scaled)                 (unscaled)
Objective...............:   4.9462991067420390e+00    4.9462991067420390e+00
Dual infeasibility......:   8.9572793626757630e-13    8.9572793626757630e-13
Constraint violation....:   1.7024337495286610e-10    1.7024337495286610e-10
Variable bound violation:   0.0000000000000000e+00    0.0000000000000000e+00
Complementarity.........:   2.7474645675463336e-09    2.7474645675463336e-09
Overall NLP error.......:   2.7474645675463336e-09    2.7474645675463336e-09


Number of objective function evaluations             = 15
Number of objective gradient evaluations             = 15
Number of equality constraint evaluations            = 15
Number of inequality constraint evaluations          = 0
Number of equality constraint Jacobian evaluations   = 15
Number of inequality constraint Jacobian evaluations = 0
Number of Lagrangian Hessian evaluations             = 14
Total seconds in IPOPT                               = 0.051

EXIT: Optimal Solution Found.
